66
1 0 2
2 0 3
2 1 3
3 0 3
3 1 1
3 2 2
4 0 3
4 1 2
4 2 2
4 3 3
5 0 2
5 1 1
5 2 1
5 3 1
5 4 2
6 0 1
6 1 1
6 2 3
6 3 1
6 4 1
6 5 1
7 0 3
7 1 1
7 2 2
7 3 3
7 4 2
7 5 3
7 6 2
8 0 3
8 1 1
8 2 3
8 3 1
8 4 1
8 5 1
8 6 1
8 7 1
9 0 2
9 1 2
9 2 2
9 3 1
9 4 3
9 5 2
9 6 1
9 7 1
9 8 2
10 0 1
10 1 3
10 2 2
10 3 2
10 4 2
10 5 2
10 6 1
10 7 2
10 8 1
10 9 2
11 0 3
11 1 1
11 2 3
11 3 3
11 4 1
11 5 1
11 6 1
11 7 2
11 8 3
11 9 2
11 10 1
12 0 3
12 1 3
12 2 1
12 3 2
12 4 3
12 5 1
12 6 1
12 7 2
12 8 2
12 9 1
12 10 1
12 11 2
13 0 2
13 1 1
13 2 1
13 3 1
13 4 1
13 5 1
13 6 3
13 7 3
13 8 3
13 9 3
13 10 3
13 11 2
13 12 1
14 0 3
14 1 1
14 2 2
14 3 2
14 4 1
14 5 1
14 6 3
14 7 2
14 8 1
14 9 1
14 10 2
14 11 2
14 12 1
14 13 2
15 0 2
15 1 1
15 2 3
15 3 3
15 4 3
15 5 2
15 6 2
15 7 3
15 8 2
15 9 3
15 10 3
15 11 1
15 12 1
15 13 3
15 14 3
16 0 2
16 1 3
16 2 3
16 3 2
16 4 3
16 5 3
16 6 1
16 7 3
16 8 1
16 9 2
16 10 2
16 11 3
16 12 3
16 13 3
16 14 3
16 15 3
17 0 1
17 1 3
17 2 3
17 3 2
17 4 3
17 5 2
17 6 3
17 7 3
17 8 1
17 9 1
17 10 2
17 11 3
17 12 3
17 13 3
17 14 3
17 15 3
17 16 3
18 0 3
18 1 1
18 2 3
18 3 2
18 4 3
18 5 1
18 6 3
18 7 3
18 8 2
18 9 2
18 10 1
18 11 3
18 12 2
18 13 3
18 14 1
18 15 1
18 16 3
18 17 3
19 0 1
19 1 1
19 2 2
19 3 2
19 4 2
19 5 1
19 6 2
19 7 3
19 8 3
19 9 2
19 10 3
19 11 1
19 12 2
19 13 1
19 14 2
19 15 2
19 16 3
19 17 2
19 18 2
20 0 3
20 1 3
20 2 1
20 3 3
20 4 2
20 5 2
20 6 2
20 7 2
20 8 2
20 9 1
20 10 1
20 11 3
20 12 2
20 13 2
20 14 1
20 15 3
20 16 3
20 17 3
20 18 1
20 19 2
21 0 2
21 1 3
21 2 2
21 3 2
21 4 2
21 5 3
21 6 3
21 7 2
21 8 3
21 9 2
21 10 2
21 11 1
21 12 3
21 13 1
21 14 3
21 15 1
21 16 3
21 17 2
21 18 2
21 19 3
21 20 2
22 0 3
22 1 1
22 2 3
22 3 3
22 4 1
22 5 3
22 6 3
22 7 3
22 8 2
22 9 3
22 10 1
22 11 1
22 12 2
22 13 1
22 14 1
22 15 3
22 16 1
22 17 1
22 18 1
22 19 1
22 20 1
22 21 1
23 0 1
23 1 3
23 2 3
23 3 1
23 4 2
23 5 2
23 6 2
23 7 3
23 8 2
23 9 3
23 10 2
23 11 2
23 12 1
23 13 2
23 14 2
23 15 3
23 16 2
23 17 2
23 18 1
23 19 3
23 20 1
23 21 1
23 22 2
24 0 2
24 1 1
24 2 1
24 3 1
24 4 2
24 5 2
24 6 2
24 7 1
24 8 3
24 9 2
24 10 2
24 11 2
24 12 2
24 13 3
24 14 3
24 15 1
24 16 3
24 17 1
24 18 2
24 19 3
24 20 2
24 21 2
24 22 3
24 23 2
25 0 3
25 1 1
25 2 1
25 3 3
25 4 2
25 5 3
25 6 1
25 7 1
25 8 1
25 9 3
25 10 2
25 11 2
25 12 2
25 13 1
25 14 2
25 15 3
25 16 2
25 17 2
25 18 3
25 19 3
25 20 3
25 21 2
25 22 1
25 23 3
25 24 3
26 0 3
26 1 1
26 2 2
26 3 3
26 4 3
26 5 1
26 6 1
26 7 2
26 8 1
26 9 3
26 10 3
26 11 2
26 12 1
26 13 3
26 14 2
26 15 1
26 16 2
26 17 2
26 18 1
26 19 2
26 20 1
26 21 3
26 22 2
26 23 2
26 24 2
26 25 3
27 0 1
27 1 2
27 2 2
27 3 2
27 4 1
27 5 3
27 6 3
27 7 3
27 8 3
27 9 1
27 10 1
27 11 2
27 12 2
27 13 2
27 14 3
27 15 3
27 16 3
27 17 1
27 18 2
27 19 1
27 20 1
27 21 3
27 22 2
27 23 3
27 24 3
27 25 2
27 26 1
28 0 3
28 1 1
28 2 1
28 3 1
28 4 1
28 5 2
28 6 2
28 7 1
28 8 2
28 9 3
28 10 1
28 11 1
28 12 3
28 13 2
28 14 3
28 15 2
28 16 3
28 17 2
28 18 3
28 19 1
28 20 1
28 21 1
28 22 3
28 23 3
28 24 1
28 25 3
28 26 2
28 27 2
29 0 2
29 1 2
29 2 3
29 3 2
29 4 3
29 5 2
29 6 1
29 7 3
29 8 1
29 9 1
29 10 2
29 11 2
29 12 3
29 13 1
29 14 1
29 15 1
29 16 3
29 17 1
29 18 3
29 19 1
29 20 3
29 21 3
29 22 3
29 23 2
29 24 2
29 25 3
29 26 2
29 27 1
29 28 3
30 0 2
30 1 3
30 2 2
30 3 1
30 4 2
30 5 3
30 6 1
30 7 2
30 8 1
30 9 1
30 10 3
30 11 2
30 12 3
30 13 1
30 14 3
30 15 3
30 16 1
30 17 3
30 18 1
30 19 1
30 20 1
30 21 2
30 22 2
30 23 1
30 24 3
30 25 1
30 26 1
30 27 3
30 28 3
30 29 3
31 0 1
31 1 2
31 2 3
31 3 3
31 4 1
31 5 2
31 6 1
31 7 3
31 8 3
31 9 1
31 10 2
31 11 3
31 12 3
31 13 1
31 14 1
31 15 3
31 16 2
31 17 3
31 18 1
31 19 2
31 20 2
31 21 2
31 22 1
31 23 1
31 24 1
31 25 1
31 26 3
31 27 3
31 28 2
31 29 3
31 30 1
32 0 2
32 1 1
32 2 1
32 3 3
32 4 2
32 5 2
32 6 1
32 7 1
32 8 1
32 9 3
32 10 3
32 11 1
32 12 2
32 13 1
32 14 1
32 15 1
32 16 2
32 17 2
32 18 1
32 19 2
32 20 3
32 21 2
32 22 1
32 23 1
32 24 2
32 25 1
32 26 2
32 27 3
32 28 1
32 29 2
32 30 3
32 31 2
33 0 3
33 1 1
33 2 3
33 3 3
33 4 3
33 5 1
33 6 1
33 7 1
33 8 3
33 9 1
33 10 2
33 11 2
33 12 2
33 13 3
33 14 3
33 15 2
33 16 2
33 17 2
33 18 2
33 19 2
33 20 3
33 21 1
33 22 2
33 23 3
33 24 3
33 25 1
33 26 3
33 27 3
33 28 2
33 29 3
33 30 2
33 31 2
33 32 2
34 0 1
34 1 3
34 2 1
34 3 1
34 4 3
34 5 1
34 6 2
34 7 2
34 8 3
34 9 2
34 10 2
34 11 1
34 12 2
34 13 3
34 14 1
34 15 3
34 16 1
34 17 2
34 18 3
34 19 2
34 20 1
34 21 1
34 22 2
34 23 2
34 24 3
34 25 1
34 26 1
34 27 2
34 28 2
34 29 3
34 30 1
34 31 2
34 32 2
34 33 2
35 0 1
35 1 1
35 2 3
35 3 3
35 4 3
35 5 2
35 6 1
35 7 2
35 8 3
35 9 1
35 10 3
35 11 3
35 12 2
35 13 3
35 14 3
35 15 3
35 16 3
35 17 1
35 18 1
35 19 3
35 20 3
35 21 2
35 22 1
35 23 3
35 24 1
35 25 1
35 26 1
35 27 3
35 28 2
35 29 3
35 30 1
35 31 2
35 32 3
35 33 2
35 34 1
36 0 2
36 1 3
36 2 3
36 3 3
36 4 2
36 5 1
36 6 3
36 7 2
36 8 1
36 9 1
36 10 1
36 11 1
36 12 3
36 13 1
36 14 2
36 15 3
36 16 3
36 17 2
36 18 3
36 19 2
36 20 2
36 21 1
36 22 1
36 23 1
36 24 2
36 25 1
36 26 1
36 27 1
36 28 3
36 29 3
36 30 3
36 31 3
36 32 3
36 33 1
36 34 3
36 35 2
37 0 2
37 1 1
37 2 3
37 3 3
37 4 2
37 5 3
37 6 3
37 7 2
37 8 2
37 9 1
37 10 2
37 11 3
37 12 2
37 13 3
37 14 3
37 15 2
37 16 3
37 17 3
37 18 2
37 19 2
37 20 1
37 21 3
37 22 1
37 23 1
37 24 3
37 25 2
37 26 2
37 27 2
37 28 2
37 29 3
37 30 1
37 31 3
37 32 1
37 33 1
37 34 1
37 35 2
37 36 3
38 0 2
38 1 1
38 2 2
38 3 1
38 4 2
38 5 2
38 6 3
38 7 1
38 8 3
38 9 3
38 10 3
38 11 3
38 12 3
38 13 1
38 14 2
38 15 3
38 16 1
38 17 1
38 18 3
38 19 3
38 20 3
38 21 1
38 22 3
38 23 3
38 24 2
38 25 3
38 26 3
38 27 1
38 28 3
38 29 3
38 30 3
38 31 2
38 32 1
38 33 1
38 34 1
38 35 2
38 36 1
38 37 2
39 0 3
39 1 1
39 2 2
39 3 2
39 4 2
39 5 2
39 6 1
39 7 2
39 8 1
39 9 2
39 10 3
39 11 1
39 12 1
39 13 1
39 14 3
39 15 2
39 16 3
39 17 2
39 18 1
39 19 2
39 20 1
39 21 1
39 22 2
39 23 1
39 24 1
39 25 2
39 26 3
39 27 1
39 28 1
39 29 3
39 30 2
39 31 1
39 32 3
39 33 3
39 34 2
39 35 2
39 36 1
39 37 1
39 38 1
40 0 1
40 1 3
40 2 3
40 3 2
40 4 1
40 5 2
40 6 3
40 7 1
40 8 2
40 9 2
40 10 1
40 11 1
40 12 3
40 13 1
40 14 1
40 15 2
40 16 3
40 17 3
40 18 3
40 19 1
40 20 1
40 21 2
40 22 1
40 23 2
40 24 2
40 25 2
40 26 3
40 27 3
40 28 2
40 29 3
40 30 1
40 31 3
40 32 3
40 33 3
40 34 1
40 35 3
40 36 3
40 37 1
40 38 3
40 39 3
41 0 2
41 1 2
41 2 1
41 3 3
41 4 1
41 5 1
41 6 2
41 7 1
41 8 3
41 9 2
41 10 1
41 11 2
41 12 2
41 13 3
41 14 3
41 15 3
41 16 3
41 17 3
41 18 1
41 19 1
41 20 3
41 21 3
41 22 1
41 23 2
41 24 3
41 25 3
41 26 3
41 27 2
41 28 3
41 29 2
41 30 2
41 31 2
41 32 2
41 33 3
41 34 1
41 35 1
41 36 3
41 37 3
41 38 1
41 39 2
41 40 1
42 0 2
42 1 1
42 2 3
42 3 2
42 4 2
42 5 3
42 6 1
42 7 2
42 8 1
42 9 1
42 10 3
42 11 2
42 12 1
42 13 2
42 14 1
42 15 1
42 16 2
42 17 1
42 18 2
42 19 3
42 20 3
42 21 2
42 22 2
42 23 2
42 24 2
42 25 3
42 26 1
42 27 2
42 28 3
42 29 3
42 30 2
42 31 1
42 32 1
42 33 2
42 34 2
42 35 3
42 36 1
42 37 2
42 38 2
42 39 3
42 40 1
42 41 3
43 0 3
43 1 2
43 2 1
43 3 3
43 4 1
43 5 1
43 6 1
43 7 1
43 8 1
43 9 1
43 10 3
43 11 3
43 12 1
43 13 3
43 14 2
43 15 2
43 16 3
43 17 1
43 18 1
43 19 3
43 20 1
43 21 3
43 22 1
43 23 1
43 24 3
43 25 1
43 26 1
43 27 1
43 28 1
43 29 2
43 30 3
43 31 1
43 32 1
43 33 2
43 34 3
43 35 1
43 36 2
43 37 1
43 38 2
43 39 2
43 40 2
43 41 3
43 42 3
44 0 3
44 1 1
44 2 1
44 3 1
44 4 2
44 5 2
44 6 2
44 7 2
44 8 1
44 9 1
44 10 3
44 11 3
44 12 3
44 13 3
44 14 1
44 15 3
44 16 1
44 17 2
44 18 2
44 19 2
44 20 2
44 21 3
44 22 3
44 23 1
44 24 2
44 25 1
44 26 2
44 27 2
44 28 3
44 29 2
44 30 3
44 31 2
44 32 3
44 33 2
44 34 1
44 35 1
44 36 3
44 37 1
44 38 2
44 39 3
44 40 2
44 41 1
44 42 2
44 43 1
45 0 1
45 1 1
45 2 2
45 3 1
45 4 3
45 5 1
45 6 1
45 7 2
45 8 2
45 9 3
45 10 2
45 11 1
45 12 3
45 13 3
45 14 2
45 15 1
45 16 1
45 17 3
45 18 1
45 19 2
45 20 2
45 21 2
45 22 1
45 23 2
45 24 3
45 25 2
45 26 2
45 27 2
45 28 3
45 29 1
45 30 2
45 31 1
45 32 2
45 33 2
45 34 3
45 35 1
45 36 3
45 37 2
45 38 3
45 39 1
45 40 3
45 41 3
45 42 1
45 43 1
45 44 3
46 0 2
46 1 1
46 2 3
46 3 2
46 4 2
46 5 1
46 6 2
46 7 3
46 8 2
46 9 3
46 10 1
46 11 2
46 12 1
46 13 3
46 14 3
46 15 1
46 16 2
46 17 2
46 18 3
46 19 1
46 20 3
46 21 3
46 22 2
46 23 2
46 24 3
46 25 3
46 26 3
46 27 3
46 28 1
46 29 1
46 30 1
46 31 1
46 32 2
46 33 3
46 34 3
46 35 2
46 36 3
46 37 1
46 38 3
46 39 2
46 40 2
46 41 3
46 42 2
46 43 2
46 44 3
46 45 1
47 0 1
47 1 3
47 2 3
47 3 1
47 4 3
47 5 3
47 6 3
47 7 1
47 8 1
47 9 3
47 10 2
47 11 1
47 12 1
47 13 1
47 14 2
47 15 3
47 16 2
47 17 2
47 18 2
47 19 3
47 20 2
47 21 3
47 22 1
47 23 1
47 24 2
47 25 3
47 26 2
47 27 3
47 28 2
47 29 3
47 30 1
47 31 1
47 32 1
47 33 3
47 34 2
47 35 3
47 36 2
47 37 3
47 38 1
47 39 2
47 40 1
47 41 1
47 42 1
47 43 1
47 44 2
47 45 1
47 46 1
48 0 1
48 1 1
48 2 2
48 3 1
48 4 1
48 5 1
48 6 1
48 7 2
48 8 2
48 9 2
48 10 2
48 11 1
48 12 1
48 13 2
48 14 2
48 15 1
48 16 2
48 17 3
48 18 2
48 19 1
48 20 2
48 21 3
48 22 1
48 23 1
48 24 2
48 25 3
48 26 3
48 27 2
48 28 3
48 29 2
48 30 1
48 31 1
48 32 1
48 33 3
48 34 3
48 35 3
48 36 2
48 37 3
48 38 2
48 39 1
48 40 1
48 41 3
48 42 2
48 43 2
48 44 1
48 45 3
48 46 3
48 47 1
49 0 1
49 1 3
49 2 3
49 3 2
49 4 1
49 5 2
49 6 1
49 7 3
49 8 1
49 9 1
49 10 2
49 11 2
49 12 3
49 13 2
49 14 3
49 15 3
49 16 2
49 17 3
49 18 2
49 19 2
49 20 2
49 21 2
49 22 1
49 23 2
49 24 3
49 25 3
49 26 3
49 27 2
49 28 3
49 29 3
49 30 3
49 31 1
49 32 1
49 33 3
49 34 3
49 35 3
49 36 1
49 37 1
49 38 2
49 39 3
49 40 1
49 41 3
49 42 2
49 43 2
49 44 1
49 45 3
49 46 1
49 47 2
49 48 2
50 0 3
50 1 1
50 2 1
50 3 2
50 4 3
50 5 1
50 6 1
50 7 2
50 8 1
50 9 1
50 10 3
50 11 3
50 12 3
50 13 1
50 14 1
50 15 1
50 16 1
50 17 3
50 18 3
50 19 2
50 20 3
50 21 2
50 22 3
50 23 3
50 24 2
50 25 2
50 26 2
50 27 3
50 28 1
50 29 3
50 30 2
50 31 2
50 32 2
50 33 1
50 34 3
50 35 1
50 36 2
50 37 3
50 38 1
50 39 3
50 40 1
50 41 1
50 42 3
50 43 2
50 44 1
50 45 1
50 46 3
50 47 3
50 48 1
50 49 2
51 0 1
51 1 2
51 2 2
51 3 3
51 4 3
51 5 1
51 6 2
51 7 1
51 8 1
51 9 2
51 10 1
51 11 3
51 12 2
51 13 1
51 14 3
51 15 2
51 16 2
51 17 2
51 18 1
51 19 3
51 20 1
51 21 3
51 22 3
51 23 1
51 24 3
51 25 2
51 26 3
51 27 1
51 28 3
51 29 2
51 30 1
51 31 3
51 32 2
51 33 2
51 34 2
51 35 3
51 36 3
51 37 1
51 38 2
51 39 3
51 40 1
51 41 1
51 42 1
51 43 1
51 44 1
51 45 2
51 46 2
51 47 3
51 48 1
51 49 2
51 50 1
52 0 2
52 1 1
52 2 2
52 3 1
52 4 1
52 5 2
52 6 2
52 7 1
52 8 3
52 9 1
52 10 1
52 11 3
52 12 2
52 13 1
52 14 2
52 15 1
52 16 3
52 17 2
52 18 1
52 19 3
52 20 3
52 21 1
52 22 2
52 23 1
52 24 1
52 25 2
52 26 1
52 27 3
52 28 3
52 29 1
52 30 2
52 31 3
52 32 3
52 33 2
52 34 2
52 35 2
52 36 3
52 37 1
52 38 2
52 39 2
52 40 1
52 41 1
52 42 3
52 43 1
52 44 3
52 45 2
52 46 3
52 47 2
52 48 3
52 49 2
52 50 1
52 51 1
53 0 2
53 1 2
53 2 3
53 3 1
53 4 2
53 5 2
53 6 2
53 7 3
53 8 3
53 9 1
53 10 1
53 11 3
53 12 1
53 13 3
53 14 3
53 15 1
53 16 2
53 17 3
53 18 2
53 19 1
53 20 3
53 21 3
53 22 1
53 23 2
53 24 1
53 25 2
53 26 1
53 27 2
53 28 1
53 29 1
53 30 2
53 31 3
53 32 2
53 33 2
53 34 1
53 35 2
53 36 2
53 37 3
53 38 2
53 39 1
53 40 1
53 41 3
53 42 2
53 43 3
53 44 2
53 45 2
53 46 3
53 47 3
53 48 3
53 49 1
53 50 1
53 51 1
53 52 2
54 0 3
54 1 2
54 2 3
54 3 3
54 4 2
54 5 3
54 6 1
54 7 1
54 8 1
54 9 2
54 10 3
54 11 3
54 12 2
54 13 1
54 14 3
54 15 2
54 16 1
54 17 3
54 18 2
54 19 1
54 20 2
54 21 2
54 22 2
54 23 2
54 24 3
54 25 2
54 26 1
54 27 3
54 28 3
54 29 3
54 30 1
54 31 1
54 32 3
54 33 3
54 34 3
54 35 3
54 36 2
54 37 2
54 38 2
54 39 1
54 40 3
54 41 1
54 42 2
54 43 3
54 44 2
54 45 1
54 46 3
54 47 3
54 48 3
54 49 1
54 50 3
54 51 2
54 52 3
54 53 3
55 0 3
55 1 3
55 2 3
55 3 2
55 4 2
55 5 3
55 6 2
55 7 1
55 8 2
55 9 1
55 10 1
55 11 1
55 12 3
55 13 1
55 14 1
55 15 2
55 16 2
55 17 1
55 18 3
55 19 2
55 20 1
55 21 2
55 22 1
55 23 2
55 24 2
55 25 3
55 26 2
55 27 1
55 28 1
55 29 1
55 30 2
55 31 1
55 32 1
55 33 1
55 34 3
55 35 1
55 36 2
55 37 3
55 38 3
55 39 1
55 40 1
55 41 1
55 42 3
55 43 2
55 44 1
55 45 2
55 46 3
55 47 1
55 48 1
55 49 2
55 50 2
55 51 3
55 52 3
55 53 1
55 54 1
56 0 2
56 1 1
56 2 2
56 3 3
56 4 1
56 5 3
56 6 3
56 7 2
56 8 1
56 9 3
56 10 2
56 11 3
56 12 3
56 13 1
56 14 1
56 15 3
56 16 2
56 17 2
56 18 2
56 19 2
56 20 3
56 21 1
56 22 2
56 23 2
56 24 1
56 25 2
56 26 3
56 27 3
56 28 3
56 29 3
56 30 1
56 31 2
56 32 1
56 33 1
56 34 3
56 35 2
56 36 1
56 37 2
56 38 1
56 39 3
56 40 1
56 41 1
56 42 3
56 43 3
56 44 3
56 45 1
56 46 3
56 47 3
56 48 2
56 49 2
56 50 2
56 51 2
56 52 3
56 53 1
56 54 2
56 55 1
57 0 1
57 1 3
57 2 3
57 3 3
57 4 3
57 5 2
57 6 3
57 7 3
57 8 1
57 9 1
57 10 3
57 11 3
57 12 2
57 13 3
57 14 3
57 15 2
57 16 3
57 17 3
57 18 2
57 19 1
57 20 1
57 21 1
57 22 3
57 23 2
57 24 1
57 25 2
57 26 1
57 27 2
57 28 2
57 29 3
57 30 3
57 31 3
57 32 1
57 33 2
57 34 3
57 35 3
57 36 3
57 37 1
57 38 2
57 39 1
57 40 2
57 41 3
57 42 2
57 43 1
57 44 1
57 45 2
57 46 2
57 47 3
57 48 1
57 49 2
57 50 2
57 51 2
57 52 2
57 53 1
57 54 3
57 55 3
57 56 2
58 0 3
58 1 1
58 2 3
58 3 1
58 4 1
58 5 3
58 6 3
58 7 2
58 8 1
58 9 3
58 10 1
58 11 2
58 12 1
58 13 2
58 14 2
58 15 3
58 16 1
58 17 1
58 18 1
58 19 3
58 20 3
58 21 2
58 22 2
58 23 1
58 24 3
58 25 3
58 26 2
58 27 1
58 28 1
58 29 2
58 30 1
58 31 3
58 32 2
58 33 2
58 34 1
58 35 1
58 36 3
58 37 3
58 38 2
58 39 1
58 40 1
58 41 2
58 42 2
58 43 2
58 44 3
58 45 3
58 46 3
58 47 1
58 48 1
58 49 1
58 50 3
58 51 1
58 52 1
58 53 2
58 54 2
58 55 3
58 56 2
58 57 2
59 0 2
59 1 1
59 2 2
59 3 2
59 4 1
59 5 3
59 6 2
59 7 3
59 8 3
59 9 1
59 10 3
59 11 3
59 12 3
59 13 3
59 14 1
59 15 3
59 16 1
59 17 2
59 18 2
59 19 2
59 20 3
59 21 3
59 22 1
59 23 1
59 24 2
59 25 2
59 26 3
59 27 1
59 28 1
59 29 2
59 30 1
59 31 3
59 32 1
59 33 1
59 34 1
59 35 2
59 36 1
59 37 2
59 38 1
59 39 3
59 40 2
59 41 2
59 42 1
59 43 3
59 44 1
59 45 3
59 46 2
59 47 3
59 48 1
59 49 2
59 50 2
59 51 2
59 52 3
59 53 3
59 54 2
59 55 2
59 56 2
59 57 1
59 58 2
60 0 3
60 1 2
60 2 2
60 3 2
60 4 3
60 5 1
60 6 1
60 7 1
60 8 1
60 9 1
60 10 1
60 11 3
60 12 3
60 13 3
60 14 3
60 15 3
60 16 3
60 17 2
60 18 2
60 19 2
60 20 3
60 21 2
60 22 3
60 23 2
60 24 1
60 25 1
60 26 2
60 27 3
60 28 1
60 29 2
60 30 1
60 31 2
60 32 2
60 33 3
60 34 2
60 35 2
60 36 3
60 37 3
60 38 1
60 39 3
60 40 2
60 41 1
60 42 3
60 43 2
60 44 3
60 45 2
60 46 2
60 47 3
60 48 3
60 49 1
60 50 2
60 51 1
60 52 1
60 53 2
60 54 3
60 55 1
60 56 3
60 57 1
60 58 1
60 59 1
61 0 3
61 1 1
61 2 2
61 3 2
61 4 1
61 5 2
61 6 2
61 7 1
61 8 2
61 9 3
61 10 3
61 11 2
61 12 2
61 13 3
61 14 2
61 15 3
61 16 2
61 17 1
61 18 1
61 19 2
61 20 3
61 21 2
61 22 1
61 23 3
61 24 2
61 25 2
61 26 3
61 27 3
61 28 1
61 29 1
61 30 2
61 31 3
61 32 1
61 33 1
61 34 1
61 35 3
61 36 1
61 37 1
61 38 3
61 39 2
61 40 2
61 41 2
61 42 3
61 43 1
61 44 3
61 45 2
61 46 2
61 47 3
61 48 2
61 49 1
61 50 1
61 51 1
61 52 2
61 53 2
61 54 1
61 55 2
61 56 1
61 57 3
61 58 2
61 59 2
61 60 2
62 0 2
62 1 2
62 2 2
62 3 3
62 4 1
62 5 2
62 6 3
62 7 2
62 8 2
62 9 1
62 10 3
62 11 2
62 12 1
62 13 1
62 14 1
62 15 2
62 16 1
62 17 3
62 18 3
62 19 1
62 20 2
62 21 2
62 22 2
62 23 2
62 24 1
62 25 1
62 26 1
62 27 2
62 28 1
62 29 3
62 30 1
62 31 3
62 32 1
62 33 1
62 34 2
62 35 3
62 36 1
62 37 3
62 38 2
62 39 2
62 40 2
62 41 2
62 42 2
62 43 1
62 44 2
62 45 1
62 46 1
62 47 2
62 48 2
62 49 1
62 50 1
62 51 2
62 52 3
62 53 2
62 54 1
62 55 1
62 56 2
62 57 2
62 58 3
62 59 1
62 60 2
62 61 2
63 0 3
63 1 3
63 2 2
63 3 3
63 4 2
63 5 1
63 6 1
63 7 2
63 8 3
63 9 2
63 10 3
63 11 3
63 12 3
63 13 2
63 14 3
63 15 1
63 16 2
63 17 2
63 18 3
63 19 3
63 20 1
63 21 3
63 22 3
63 23 2
63 24 2
63 25 1
63 26 2
63 27 1
63 28 3
63 29 2
63 30 2
63 31 1
63 32 2
63 33 2
63 34 2
63 35 1
63 36 1
63 37 1
63 38 2
63 39 3
63 40 3
63 41 2
63 42 2
63 43 1
63 44 3
63 45 3
63 46 2
63 47 3
63 48 2
63 49 3
63 50 1
63 51 3
63 52 3
63 53 1
63 54 1
63 55 3
63 56 2
63 57 1
63 58 1
63 59 3
63 60 1
63 61 2
63 62 3
64 0 2
64 1 1
64 2 1
64 3 1
64 4 2
64 5 1
64 6 1
64 7 1
64 8 3
64 9 1
64 10 2
64 11 3
64 12 3
64 13 1
64 14 3
64 15 1
64 16 1
64 17 3
64 18 1
64 19 2
64 20 1
64 21 3
64 22 2
64 23 3
64 24 3
64 25 3
64 26 2
64 27 3
64 28 1
64 29 2
64 30 2
64 31 2
64 32 3
64 33 2
64 34 3
64 35 3
64 36 1
64 37 2
64 38 3
64 39 3
64 40 3
64 41 3
64 42 3
64 43 1
64 44 2
64 45 3
64 46 2
64 47 2
64 48 2
64 49 2
64 50 1
64 51 2
64 52 3
64 53 1
64 54 3
64 55 1
64 56 1
64 57 3
64 58 2
64 59 2
64 60 2
64 61 1
64 62 3
64 63 3
65 0 3
65 1 2
65 2 2
65 3 3
65 4 2
65 5 2
65 6 1
65 7 3
65 8 1
65 9 2
65 10 2
65 11 3
65 12 1
65 13 1
65 14 2
65 15 2
65 16 3
65 17 1
65 18 2
65 19 2
65 20 2
65 21 2
65 22 1
65 23 2
65 24 1
65 25 2
65 26 2
65 27 3
65 28 1
65 29 3
65 30 3
65 31 3
65 32 3
65 33 2
65 34 2
65 35 2
65 36 1
65 37 1
65 38 2
65 39 3
65 40 2
65 41 2
65 42 2
65 43 1
65 44 1
65 45 1
65 46 3
65 47 1
65 48 2
65 49 1
65 50 1
65 51 3
65 52 2
65 53 2
65 54 1
65 55 1
65 56 2
65 57 2
65 58 3
65 59 3
65 60 1
65 61 3
65 62 3
65 63 2
65 64 3
